(set-info :smt-lib-version 2.6)
(set-logic QF_NIA)
(set-info :source |
Generated by: Cristina Borralleras, Daniel Larraz, Albert Oliveras, Enric Rodriguez-Carbonell, Albert Rubio
Generated on: 2017-04-27
Generator: VeryMax
Application: Termination proving
Target solver: barcelogic
|)
(set-info :license "https://creativecommons.org/licenses/by/4.0/")
(set-info :category "industrial")
(set-info :status sat)
(declare-fun Nl8nondet_30^01 () Int)
(declare-fun Nl8t_1193^01 () Int)
(declare-fun Nl8t_1197^01 () Int)
(declare-fun Nl8t_11^01 () Int)
(declare-fun Nl8t_1219^01 () Int)
(declare-fun Nl8t_1227^01 () Int)
(declare-fun Nl8t_1231^01 () Int)
(declare-fun Nl8nondet_30^02 () Int)
(declare-fun Nl8t_1193^02 () Int)
(declare-fun Nl8t_1197^02 () Int)
(declare-fun Nl8t_11^02 () Int)
(declare-fun Nl8t_1219^02 () Int)
(declare-fun Nl8t_1227^02 () Int)
(declare-fun Nl8t_1231^02 () Int)
(declare-fun lam0n0 () Int)
(declare-fun lam0n1 () Int)
(declare-fun lam0n2 () Int)
(declare-fun lam0n3 () Int)
(declare-fun lam0n4 () Int)
(declare-fun lam0n12 () Int)
(declare-fun lam0n13 () Int)
(declare-fun Nl8CT1 () Int)
(declare-fun Nl8CT2 () Int)
(declare-fun lam0n5 () Int)
(declare-fun lam0n6 () Int)
(declare-fun lam0n7 () Int)
(declare-fun lam0n8 () Int)
(declare-fun lam0n9 () Int)
(declare-fun lam0n10 () Int)
(declare-fun lam0n11 () Int)
(declare-fun lam1n0 () Int)
(declare-fun lam1n1 () Int)
(declare-fun lam1n2 () Int)
(declare-fun lam1n3 () Int)
(declare-fun lam1n4 () Int)
(declare-fun lam1n12 () Int)
(declare-fun lam1n13 () Int)
(declare-fun lam1n5 () Int)
(declare-fun lam1n6 () Int)
(declare-fun lam1n7 () Int)
(declare-fun lam1n8 () Int)
(declare-fun lam1n9 () Int)
(declare-fun lam1n10 () Int)
(declare-fun lam1n11 () Int)
(declare-fun lam2n0 () Int)
(declare-fun lam2n1 () Int)
(declare-fun lam2n2 () Int)
(declare-fun lam2n3 () Int)
(declare-fun lam2n4 () Int)
(declare-fun lam2n12 () Int)
(declare-fun lam2n13 () Int)
(declare-fun lam2n5 () Int)
(declare-fun lam2n6 () Int)
(declare-fun lam2n7 () Int)
(declare-fun lam2n8 () Int)
(declare-fun lam2n9 () Int)
(declare-fun lam2n10 () Int)
(declare-fun lam2n11 () Int)
(declare-fun lam3n0 () Int)
(declare-fun lam3n1 () Int)
(declare-fun lam3n2 () Int)
(declare-fun lam3n3 () Int)
(declare-fun lam3n4 () Int)
(declare-fun lam3n5 () Int)
(declare-fun lam3n6 () Int)
(declare-fun lam3n7 () Int)
(declare-fun lam3n8 () Int)
(declare-fun lam3n9 () Int)
(declare-fun lam3n10 () Int)
(declare-fun lam3n11 () Int)
(declare-fun lam3n12 () Int)
(declare-fun lam3n13 () Int)
(declare-fun lam3n14 () Int)
(declare-fun lam3n15 () Int)
(declare-fun lam3n16 () Int)
(declare-fun lam3n17 () Int)
(declare-fun lam3n18 () Int)
(declare-fun lam3n19 () Int)
(declare-fun lam3n20 () Int)
(declare-fun lam3n21 () Int)
(declare-fun lam4n0 () Int)
(declare-fun lam4n1 () Int)
(declare-fun lam4n2 () Int)
(declare-fun lam4n3 () Int)
(declare-fun lam4n4 () Int)
(declare-fun lam4n5 () Int)
(declare-fun lam4n6 () Int)
(declare-fun lam4n7 () Int)
(declare-fun lam4n8 () Int)
(declare-fun lam4n9 () Int)
(declare-fun lam4n10 () Int)
(declare-fun lam4n11 () Int)
(declare-fun lam4n12 () Int)
(declare-fun lam4n13 () Int)
(declare-fun lam4n14 () Int)
(declare-fun lam4n15 () Int)
(declare-fun lam4n16 () Int)
(declare-fun lam4n17 () Int)
(declare-fun lam4n18 () Int)
(declare-fun lam4n19 () Int)
(declare-fun lam4n20 () Int)
(declare-fun lam4n21 () Int)
(declare-fun undef4807 () Int)
(declare-fun undef4934 () Int)
(declare-fun t_1193^0 () Int)
(declare-fun t_1227^0 () Int)
(declare-fun t_1231^0 () Int)
(declare-fun undef4841 () Int)
(declare-fun undef4843 () Int)
(declare-fun undef4936 () Int)
(declare-fun undef4940 () Int)
(declare-fun undef4937 () Int)
(declare-fun undef4941 () Int)
(declare-fun undef4939 () Int)
(declare-fun undef4942 () Int)
(declare-fun undef4943 () Int)
(declare-fun cnt_58^0 () Int)
(declare-fun undef4935 () Int)
(declare-fun t_1122^0 () Int)
(declare-fun t_1130^0 () Int)
(declare-fun t_1134^0 () Int)
(declare-fun t_1146^0 () Int)
(declare-fun undef4938 () Int)
(declare-fun t_1166^0 () Int)
(declare-fun t_1174^0 () Int)
(declare-fun t_1178^0 () Int)
(declare-fun undef4772 () Int)
(declare-fun undef4774 () Int)
(declare-fun undef4782 () Int)
(declare-fun undef4929 () Int)
(declare-fun undef4783 () Int)
(declare-fun undef4801 () Int)
(declare-fun nondet_30^0 () Int)
(declare-fun t_1197^0 () Int)
(declare-fun t_1219^0 () Int)
(declare-fun lam8n0 () Int)
(declare-fun lam8n1 () Int)
(declare-fun lam8n2 () Int)
(declare-fun lam8n3 () Int)
(declare-fun lam8n4 () Int)
(declare-fun lam8n12 () Int)
(declare-fun lam8n13 () Int)
(declare-fun RFN1_CT () Int)
(declare-fun RFN1_nondet_30^0 () Int)
(declare-fun RFN1_t_11^0 () Int)
(declare-fun lam8n5 () Int)
(declare-fun RFN1_t_1193^0 () Int)
(declare-fun lam8n6 () Int)
(declare-fun RFN1_t_1197^0 () Int)
(declare-fun lam8n7 () Int)
(declare-fun RFN1_t_1219^0 () Int)
(declare-fun lam8n8 () Int)
(declare-fun RFN1_t_1227^0 () Int)
(declare-fun lam8n9 () Int)
(declare-fun RFN1_t_1231^0 () Int)
(declare-fun lam8n10 () Int)
(declare-fun lam8n11 () Int)
(declare-fun lam6n0 () Int)
(declare-fun lam6n1 () Int)
(declare-fun lam6n2 () Int)
(declare-fun lam6n3 () Int)
(declare-fun lam6n4 () Int)
(declare-fun lam6n12 () Int)
(declare-fun lam6n13 () Int)
(declare-fun lam6n5 () Int)
(declare-fun lam6n6 () Int)
(declare-fun lam6n7 () Int)
(declare-fun lam6n8 () Int)
(declare-fun lam6n9 () Int)
(declare-fun lam6n10 () Int)
(declare-fun lam6n11 () Int)
(declare-fun lam7n0 () Int)
(declare-fun lam7n1 () Int)
(declare-fun lam7n2 () Int)
(declare-fun lam7n3 () Int)
(declare-fun lam7n4 () Int)
(declare-fun lam7n12 () Int)
(declare-fun lam7n13 () Int)
(declare-fun lam7n5 () Int)
(declare-fun lam7n6 () Int)
(declare-fun lam7n7 () Int)
(declare-fun lam7n8 () Int)
(declare-fun lam7n9 () Int)
(declare-fun lam7n10 () Int)
(declare-fun lam7n11 () Int)
(declare-fun lam5n0 () Int)
(declare-fun lam5n1 () Int)
(declare-fun lam5n2 () Int)
(declare-fun lam5n3 () Int)
(declare-fun lam5n4 () Int)
(declare-fun lam5n12 () Int)
(declare-fun lam5n13 () Int)
(declare-fun lam5n5 () Int)
(declare-fun lam5n6 () Int)
(declare-fun lam5n7 () Int)
(declare-fun lam5n8 () Int)
(declare-fun lam5n9 () Int)
(declare-fun lam5n10 () Int)
(declare-fun lam5n11 () Int)
(assert ( and ( <= ( - 1 ) Nl8nondet_30^01 ) ( <= Nl8nondet_30^01 1 ) ( <= ( - 1 ) Nl8t_1193^01 ) ( <= Nl8t_1193^01 1 ) ( <= ( - 1 ) Nl8t_1197^01 ) ( <= Nl8t_1197^01 1 ) ( <= ( - 1 ) Nl8t_11^01 ) ( <= Nl8t_11^01 1 ) ( <= ( - 1 ) Nl8t_1219^01 ) ( <= Nl8t_1219^01 1 ) ( <= ( - 1 ) Nl8t_1227^01 ) ( <= Nl8t_1227^01 1 ) ( <= ( - 1 ) Nl8t_1231^01 ) ( <= Nl8t_1231^01 1 ) ( <= ( - 1 ) Nl8nondet_30^02 ) ( <= Nl8nondet_30^02 1 ) ( <= ( - 1 ) Nl8t_1193^02 ) ( <= Nl8t_1193^02 1 ) ( <= ( - 1 ) Nl8t_1197^02 ) ( <= Nl8t_1197^02 1 ) ( <= ( - 1 ) Nl8t_11^02 ) ( <= Nl8t_11^02 1 ) ( <= ( - 1 ) Nl8t_1219^02 ) ( <= Nl8t_1219^02 1 ) ( <= ( - 1 ) Nl8t_1227^02 ) ( <= Nl8t_1227^02 1 ) ( <= ( - 1 ) Nl8t_1231^02 ) ( <= Nl8t_1231^02 1 ) ))
(assert ( or ( and ( >= lam0n0 0 ) ( >= lam0n1 0 ) ( >= lam0n2 0 ) ( >= lam0n3 0 ) ( >= lam0n4 0 ) ( >= lam0n12 0 ) ( >= lam0n13 0 ) ( > ( + ( * 1 lam0n2 ) ( * 1 lam0n3 ) ( * 1 lam0n4 ) ( * Nl8CT1 lam0n12 ) ( * Nl8CT2 lam0n13 ) ( - 1 ) ) 0 ) ( = ( + ( * Nl8nondet_30^01 lam0n12 ) ( * Nl8nondet_30^02 lam0n13 ) ) 0 ) ( = ( + ( * 1 lam0n2 ) ( * 1 lam0n5 ) ( * Nl8t_1193^01 lam0n12 ) ( * Nl8t_1193^02 lam0n13 ) ) 0 ) ( = ( + ( * 1 lam0n6 ) ( * Nl8t_1197^01 lam0n12 ) ( * Nl8t_1197^02 lam0n13 ) ) 0 ) ( = ( + ( * Nl8t_11^01 lam0n12 ) ( * Nl8t_11^02 lam0n13 ) ) 0 ) ( = ( + ( * 1 lam0n7 ) ( * Nl8t_1219^01 lam0n12 ) ( * Nl8t_1219^02 lam0n13 ) ) 0 ) ( = ( + ( * ( - 1 ) lam0n2 ) ( * 1 lam0n8 ) ( * Nl8t_1227^01 lam0n12 ) ( * Nl8t_1227^02 lam0n13 ) ) 0 ) ( = ( + ( * 1 lam0n2 ) ( * 1 lam0n9 ) ( * Nl8t_1231^01 lam0n12 ) ( * Nl8t_1231^02 lam0n13 ) ) 0 ) ( = ( * 1 lam0n10 ) 0 ) ( = ( + ( * 1 lam0n0 ) ( * 1 lam0n11 ) ) 0 ) ( = ( * ( - 1 ) lam0n11 ) 0 ) ( = ( + ( * ( - 1 ) lam0n3 ) ( * ( - 1 ) lam0n8 ) ) 0 ) ( = ( + ( * 1 lam0n3 ) ( * ( - 1 ) lam0n9 ) ) 0 ) ( = ( + ( * 1 lam0n1 ) ( * ( - 1 ) lam0n5 ) ) 0 ) ( = ( * ( - 1 ) lam0n6 ) 0 ) ( = ( + ( * ( - 1 ) lam0n4 ) ( * ( - 1 ) lam0n10 ) ) 0 ) ( = ( + ( * 1 lam0n4 ) ( * ( - 1 ) lam0n7 ) ) 0 ) ) ( and ( >= lam1n0 0 ) ( >= lam1n1 0 ) ( >= lam1n2 0 ) ( >= lam1n3 0 ) ( >= lam1n4 0 ) ( >= lam1n12 0 ) ( >= lam1n13 0 ) ( > ( + ( * 1 lam1n2 ) ( * 1 lam1n3 ) ( * 1 lam1n4 ) ( * Nl8CT1 lam1n12 ) ( * Nl8CT2 lam1n13 ) ( - 1 ( + ( + Nl8CT1 ( * Nl8nondet_30^01 0 ) ) ( * Nl8t_11^01 0 ) ) ) ) 0 ) ( = ( + ( * Nl8nondet_30^01 lam1n12 ) ( * Nl8nondet_30^02 lam1n13 ) ) 0 ) ( = ( + ( * 1 lam1n2 ) ( * 1 lam1n5 ) ( * Nl8t_1193^01 lam1n12 ) ( * Nl8t_1193^02 lam1n13 ) ( - ( + 0 Nl8t_1193^01 ) ) ) 0 ) ( = ( + ( * 1 lam1n6 ) ( * Nl8t_1197^01 lam1n12 ) ( * Nl8t_1197^02 lam1n13 ) ( - ( + 0 Nl8t_1197^01 ) ) ) 0 ) ( = ( + ( * Nl8t_11^01 lam1n12 ) ( * Nl8t_11^02 lam1n13 ) ) 0 ) ( = ( + ( * 1 lam1n7 ) ( * Nl8t_1219^01 lam1n12 ) ( * Nl8t_1219^02 lam1n13 ) ( - ( + 0 Nl8t_1219^01 ) ) ) 0 ) ( = ( + ( * ( - 1 ) lam1n2 ) ( * 1 lam1n8 ) ( * Nl8t_1227^01 lam1n12 ) ( * Nl8t_1227^02 lam1n13 ) ( - ( + 0 Nl8t_1227^01 ) ) ) 0 ) ( = ( + ( * 1 lam1n2 ) ( * 1 lam1n9 ) ( * Nl8t_1231^01 lam1n12 ) ( * Nl8t_1231^02 lam1n13 ) ( - ( + 0 Nl8t_1231^01 ) ) ) 0 ) ( = ( * 1 lam1n10 ) 0 ) ( = ( - ( + 0 ( * Nl8nondet_30^01 1 ) ) ) 0 ) ( = ( + ( * 1 lam1n0 ) ( * 1 lam1n11 ) ( - ( + 0 ( * Nl8t_11^01 1 ) ) ) ) 0 ) ( = ( * ( - 1 ) lam1n11 ) 0 ) ( = ( + ( * ( - 1 ) lam1n3 ) ( * ( - 1 ) lam1n8 ) ) 0 ) ( = ( + ( * 1 lam1n3 ) ( * ( - 1 ) lam1n9 ) ) 0 ) ( = ( + ( * 1 lam1n1 ) ( * ( - 1 ) lam1n5 ) ) 0 ) ( = ( * ( - 1 ) lam1n6 ) 0 ) ( = ( + ( * ( - 1 ) lam1n4 ) ( * ( - 1 ) lam1n10 ) ) 0 ) ( = ( + ( * 1 lam1n4 ) ( * ( - 1 ) lam1n7 ) ) 0 ) ) ))
(assert ( or ( and ( >= lam0n0 0 ) ( >= lam0n1 0 ) ( >= lam0n2 0 ) ( >= lam0n3 0 ) ( >= lam0n4 0 ) ( >= lam0n12 0 ) ( >= lam0n13 0 ) ( > ( + ( * 1 lam0n2 ) ( * 1 lam0n3 ) ( * 1 lam0n4 ) ( * Nl8CT1 lam0n12 ) ( * Nl8CT2 lam0n13 ) ( - 1 ) ) 0 ) ( = ( + ( * Nl8nondet_30^01 lam0n12 ) ( * Nl8nondet_30^02 lam0n13 ) ) 0 ) ( = ( + ( * 1 lam0n2 ) ( * 1 lam0n5 ) ( * Nl8t_1193^01 lam0n12 ) ( * Nl8t_1193^02 lam0n13 ) ) 0 ) ( = ( + ( * 1 lam0n6 ) ( * Nl8t_1197^01 lam0n12 ) ( * Nl8t_1197^02 lam0n13 ) ) 0 ) ( = ( + ( * Nl8t_11^01 lam0n12 ) ( * Nl8t_11^02 lam0n13 ) ) 0 ) ( = ( + ( * 1 lam0n7 ) ( * Nl8t_1219^01 lam0n12 ) ( * Nl8t_1219^02 lam0n13 ) ) 0 ) ( = ( + ( * ( - 1 ) lam0n2 ) ( * 1 lam0n8 ) ( * Nl8t_1227^01 lam0n12 ) ( * Nl8t_1227^02 lam0n13 ) ) 0 ) ( = ( + ( * 1 lam0n2 ) ( * 1 lam0n9 ) ( * Nl8t_1231^01 lam0n12 ) ( * Nl8t_1231^02 lam0n13 ) ) 0 ) ( = ( * 1 lam0n10 ) 0 ) ( = ( + ( * 1 lam0n0 ) ( * 1 lam0n11 ) ) 0 ) ( = ( * ( - 1 ) lam0n11 ) 0 ) ( = ( + ( * ( - 1 ) lam0n3 ) ( * ( - 1 ) lam0n8 ) ) 0 ) ( = ( + ( * 1 lam0n3 ) ( * ( - 1 ) lam0n9 ) ) 0 ) ( = ( + ( * 1 lam0n1 ) ( * ( - 1 ) lam0n5 ) ) 0 ) ( = ( * ( - 1 ) lam0n6 ) 0 ) ( = ( + ( * ( - 1 ) lam0n4 ) ( * ( - 1 ) lam0n10 ) ) 0 ) ( = ( + ( * 1 lam0n4 ) ( * ( - 1 ) lam0n7 ) ) 0 ) ) ( and ( >= lam2n0 0 ) ( >= lam2n1 0 ) ( >= lam2n2 0 ) ( >= lam2n3 0 ) ( >= lam2n4 0 ) ( >= lam2n12 0 ) ( >= lam2n13 0 ) ( > ( + ( * 1 lam2n2 ) ( * 1 lam2n3 ) ( * 1 lam2n4 ) ( * Nl8CT1 lam2n12 ) ( * Nl8CT2 lam2n13 ) ( - 1 ( + ( + Nl8CT2 ( * Nl8nondet_30^02 0 ) ) ( * Nl8t_11^02 0 ) ) ) ) 0 ) ( = ( + ( * Nl8nondet_30^01 lam2n12 ) ( * Nl8nondet_30^02 lam2n13 ) ) 0 ) ( = ( + ( * 1 lam2n2 ) ( * 1 lam2n5 ) ( * Nl8t_1193^01 lam2n12 ) ( * Nl8t_1193^02 lam2n13 ) ( - ( + 0 Nl8t_1193^02 ) ) ) 0 ) ( = ( + ( * 1 lam2n6 ) ( * Nl8t_1197^01 lam2n12 ) ( * Nl8t_1197^02 lam2n13 ) ( - ( + 0 Nl8t_1197^02 ) ) ) 0 ) ( = ( + ( * Nl8t_11^01 lam2n12 ) ( * Nl8t_11^02 lam2n13 ) ) 0 ) ( = ( + ( * 1 lam2n7 ) ( * Nl8t_1219^01 lam2n12 ) ( * Nl8t_1219^02 lam2n13 ) ( - ( + 0 Nl8t_1219^02 ) ) ) 0 ) ( = ( + ( * ( - 1 ) lam2n2 ) ( * 1 lam2n8 ) ( * Nl8t_1227^01 lam2n12 ) ( * Nl8t_1227^02 lam2n13 ) ( - ( + 0 Nl8t_1227^02 ) ) ) 0 ) ( = ( + ( * 1 lam2n2 ) ( * 1 lam2n9 ) ( * Nl8t_1231^01 lam2n12 ) ( * Nl8t_1231^02 lam2n13 ) ( - ( + 0 Nl8t_1231^02 ) ) ) 0 ) ( = ( * 1 lam2n10 ) 0 ) ( = ( - ( + 0 ( * Nl8nondet_30^02 1 ) ) ) 0 ) ( = ( + ( * 1 lam2n0 ) ( * 1 lam2n11 ) ( - ( + 0 ( * Nl8t_11^02 1 ) ) ) ) 0 ) ( = ( * ( - 1 ) lam2n11 ) 0 ) ( = ( + ( * ( - 1 ) lam2n3 ) ( * ( - 1 ) lam2n8 ) ) 0 ) ( = ( + ( * 1 lam2n3 ) ( * ( - 1 ) lam2n9 ) ) 0 ) ( = ( + ( * 1 lam2n1 ) ( * ( - 1 ) lam2n5 ) ) 0 ) ( = ( * ( - 1 ) lam2n6 ) 0 ) ( = ( + ( * ( - 1 ) lam2n4 ) ( * ( - 1 ) lam2n10 ) ) 0 ) ( = ( + ( * 1 lam2n4 ) ( * ( - 1 ) lam2n7 ) ) 0 ) ) ))
(assert ( and ( <= undef4807 0 ) ( <= undef4934 0 ) ( not ( <= ( + ( * ( - 1 ) t_1193^0 ) t_1227^0 ( * ( - 1 ) t_1231^0 ) ) 0 ) ) ( <= ( + 1 ( * ( - 1 ) undef4841 ) undef4843 ) 0 ) ( <= ( + 1 ( * ( - 1 ) undef4936 ) undef4940 ) 0 ) ( <= ( + 1 ( * ( - 1 ) undef4937 ) undef4941 ) 0 ) ( <= ( + 1 ( * ( - 1 ) undef4939 ) undef4942 ) 0 ) ( <= ( + 1 ( * ( - 1 ) undef4943 ) ) 0 ) ( = ( + cnt_58^0 ( * ( - 1 ) undef4935 ) ) 0 ) ( = ( + t_1122^0 ( * ( - 1 ) undef4940 ) ) 0 ) ( = ( + t_1130^0 ( * ( - 1 ) undef4937 ) ) 0 ) ( = ( + t_1134^0 ( * ( - 1 ) undef4941 ) ) 0 ) ( = ( + t_1146^0 ( * ( - 1 ) undef4938 ) ) 0 ) ( = ( + t_1166^0 ( * ( - 1 ) undef4942 ) ) 0 ) ( = ( + t_1174^0 ( * ( - 1 ) undef4841 ) ) 0 ) ( = ( + t_1178^0 ( * ( - 1 ) undef4843 ) ) 0 ) ( = ( + undef4772 ( * ( - 1 ) undef4936 ) ) 0 ) ( = ( + undef4774 ( * ( - 1 ) undef4939 ) ) 0 ) ( = ( + undef4782 ( * ( - 1 ) undef4929 ) ) 0 ) ( = ( + undef4783 ( * ( - 1 ) undef4934 ) ) 0 ) ( = ( + undef4801 ( * ( - 1 ) undef4807 ) ) 0 ) ( = ( + undef4929 ( * ( - 1 ) undef4943 ) ) 0 ) ( <= ( + ( + Nl8CT1 ( * Nl8t_11^01 0 ) ) ( * ( + 0 Nl8nondet_30^01 ) nondet_30^0 ) ( * ( + 0 Nl8t_1193^01 ) t_1193^0 ) ( * ( + 0 Nl8t_1197^01 ) t_1197^0 ) ( * ( + 0 Nl8t_1219^01 ) t_1219^0 ) ( * ( + 0 Nl8t_1227^01 ) t_1227^0 ) ( * ( + 0 Nl8t_1231^01 ) t_1231^0 ) ( * ( + 0 ( * Nl8t_11^01 1 ) ) undef4807 ) ) 0 ) ( <= ( + ( + Nl8CT2 ( * Nl8t_11^02 0 ) ) ( * ( + 0 Nl8nondet_30^02 ) nondet_30^0 ) ( * ( + 0 Nl8t_1193^02 ) t_1193^0 ) ( * ( + 0 Nl8t_1197^02 ) t_1197^0 ) ( * ( + 0 Nl8t_1219^02 ) t_1219^0 ) ( * ( + 0 Nl8t_1227^02 ) t_1227^0 ) ( * ( + 0 Nl8t_1231^02 ) t_1231^0 ) ( * ( + 0 ( * Nl8t_11^02 1 ) ) undef4807 ) ) 0 ) ))
(assert ( or ( and ( and ( >= lam8n0 0 ) ( >= lam8n1 0 ) ( >= lam8n2 0 ) ( >= lam8n3 0 ) ( >= lam8n4 0 ) ( >= lam8n12 0 ) ( >= lam8n13 0 ) ( > ( + ( * 1 lam8n2 ) ( * 1 lam8n3 ) ( * 1 lam8n4 ) ( * Nl8CT1 lam8n12 ) ( * Nl8CT2 lam8n13 ) ( - 1 ( - ( + ( + RFN1_CT ( * RFN1_nondet_30^0 0 ) ) ( * RFN1_t_11^0 0 ) ) RFN1_CT ) ) ) 0 ) ( = ( + ( * Nl8nondet_30^01 lam8n12 ) ( * Nl8nondet_30^02 lam8n13 ) ( - ( - RFN1_nondet_30^0 ) ) ) 0 ) ( = ( + ( * 1 lam8n2 ) ( * 1 lam8n5 ) ( * Nl8t_1193^01 lam8n12 ) ( * Nl8t_1193^02 lam8n13 ) ( - ( - ( + 0 RFN1_t_1193^0 ) RFN1_t_1193^0 ) ) ) 0 ) ( = ( + ( * 1 lam8n6 ) ( * Nl8t_1197^01 lam8n12 ) ( * Nl8t_1197^02 lam8n13 ) ( - ( - ( + 0 RFN1_t_1197^0 ) RFN1_t_1197^0 ) ) ) 0 ) ( = ( + ( * Nl8t_11^01 lam8n12 ) ( * Nl8t_11^02 lam8n13 ) ( - ( - RFN1_t_11^0 ) ) ) 0 ) ( = ( + ( * 1 lam8n7 ) ( * Nl8t_1219^01 lam8n12 ) ( * Nl8t_1219^02 lam8n13 ) ( - ( - ( + 0 RFN1_t_1219^0 ) RFN1_t_1219^0 ) ) ) 0 ) ( = ( + ( * ( - 1 ) lam8n2 ) ( * 1 lam8n8 ) ( * Nl8t_1227^01 lam8n12 ) ( * Nl8t_1227^02 lam8n13 ) ( - ( - ( + 0 RFN1_t_1227^0 ) RFN1_t_1227^0 ) ) ) 0 ) ( = ( + ( * 1 lam8n2 ) ( * 1 lam8n9 ) ( * Nl8t_1231^01 lam8n12 ) ( * Nl8t_1231^02 lam8n13 ) ( - ( - ( + 0 RFN1_t_1231^0 ) RFN1_t_1231^0 ) ) ) 0 ) ( = ( * 1 lam8n10 ) 0 ) ( = ( - ( + 0 ( * RFN1_nondet_30^0 1 ) ) ) 0 ) ( = ( + ( * 1 lam8n0 ) ( * 1 lam8n11 ) ( - ( + 0 ( * RFN1_t_11^0 1 ) ) ) ) 0 ) ( = ( * ( - 1 ) lam8n11 ) 0 ) ( = ( + ( * ( - 1 ) lam8n3 ) ( * ( - 1 ) lam8n8 ) ) 0 ) ( = ( + ( * 1 lam8n3 ) ( * ( - 1 ) lam8n9 ) ) 0 ) ( = ( + ( * 1 lam8n1 ) ( * ( - 1 ) lam8n5 ) ) 0 ) ( = ( * ( - 1 ) lam8n6 ) 0 ) ( = ( + ( * ( - 1 ) lam8n4 ) ( * ( - 1 ) lam8n10 ) ) 0 ) ( = ( + ( * 1 lam8n4 ) ( * ( - 1 ) lam8n7 ) ) 0 ) ) ( and ( and ( >= lam6n0 0 ) ( >= lam6n1 0 ) ( >= lam6n2 0 ) ( >= lam6n3 0 ) ( >= lam6n4 0 ) ( >= lam6n12 0 ) ( >= lam6n13 0 ) ( > ( + ( * 1 lam6n2 ) ( * 1 lam6n3 ) ( * 1 lam6n4 ) ( * Nl8CT1 lam6n12 ) ( * Nl8CT2 lam6n13 ) ( - 1 ( - RFN1_CT ) ) ) 0 ) ( = ( + ( * Nl8nondet_30^01 lam6n12 ) ( * Nl8nondet_30^02 lam6n13 ) ( - ( - RFN1_nondet_30^0 ) ) ) 0 ) ( = ( + ( * 1 lam6n2 ) ( * 1 lam6n5 ) ( * Nl8t_1193^01 lam6n12 ) ( * Nl8t_1193^02 lam6n13 ) ( - ( - RFN1_t_1193^0 ) ) ) 0 ) ( = ( + ( * 1 lam6n6 ) ( * Nl8t_1197^01 lam6n12 ) ( * Nl8t_1197^02 lam6n13 ) ( - ( - RFN1_t_1197^0 ) ) ) 0 ) ( = ( + ( * Nl8t_11^01 lam6n12 ) ( * Nl8t_11^02 lam6n13 ) ( - ( - RFN1_t_11^0 ) ) ) 0 ) ( = ( + ( * 1 lam6n7 ) ( * Nl8t_1219^01 lam6n12 ) ( * Nl8t_1219^02 lam6n13 ) ( - ( - RFN1_t_1219^0 ) ) ) 0 ) ( = ( + ( * ( - 1 ) lam6n2 ) ( * 1 lam6n8 ) ( * Nl8t_1227^01 lam6n12 ) ( * Nl8t_1227^02 lam6n13 ) ( - ( - RFN1_t_1227^0 ) ) ) 0 ) ( = ( + ( * 1 lam6n2 ) ( * 1 lam6n9 ) ( * Nl8t_1231^01 lam6n12 ) ( * Nl8t_1231^02 lam6n13 ) ( - ( - RFN1_t_1231^0 ) ) ) 0 ) ( = ( * 1 lam6n10 ) 0 ) ( = ( + ( * 1 lam6n0 ) ( * 1 lam6n11 ) ) 0 ) ( = ( * ( - 1 ) lam6n11 ) 0 ) ( = ( + ( * ( - 1 ) lam6n3 ) ( * ( - 1 ) lam6n8 ) ) 0 ) ( = ( + ( * 1 lam6n3 ) ( * ( - 1 ) lam6n9 ) ) 0 ) ( = ( + ( * 1 lam6n1 ) ( * ( - 1 ) lam6n5 ) ) 0 ) ( = ( * ( - 1 ) lam6n6 ) 0 ) ( = ( + ( * ( - 1 ) lam6n4 ) ( * ( - 1 ) lam6n10 ) ) 0 ) ( = ( + ( * 1 lam6n4 ) ( * ( - 1 ) lam6n7 ) ) 0 ) ) ( and ( >= lam7n0 0 ) ( >= lam7n1 0 ) ( >= lam7n2 0 ) ( >= lam7n3 0 ) ( >= lam7n4 0 ) ( >= lam7n12 0 ) ( >= lam7n13 0 ) ( > ( + ( * 1 lam7n2 ) ( * 1 lam7n3 ) ( * 1 lam7n4 ) ( * Nl8CT1 lam7n12 ) ( * Nl8CT2 lam7n13 ) ( - 1 ( + ( - ( + ( + RFN1_CT ( * RFN1_nondet_30^0 0 ) ) ( * RFN1_t_11^0 0 ) ) RFN1_CT ) 1 ) ) ) 0 ) ( = ( + ( * Nl8nondet_30^01 lam7n12 ) ( * Nl8nondet_30^02 lam7n13 ) ( - ( - RFN1_nondet_30^0 ) ) ) 0 ) ( = ( + ( * 1 lam7n2 ) ( * 1 lam7n5 ) ( * Nl8t_1193^01 lam7n12 ) ( * Nl8t_1193^02 lam7n13 ) ( - ( - ( + 0 RFN1_t_1193^0 ) RFN1_t_1193^0 ) ) ) 0 ) ( = ( + ( * 1 lam7n6 ) ( * Nl8t_1197^01 lam7n12 ) ( * Nl8t_1197^02 lam7n13 ) ( - ( - ( + 0 RFN1_t_1197^0 ) RFN1_t_1197^0 ) ) ) 0 ) ( = ( + ( * Nl8t_11^01 lam7n12 ) ( * Nl8t_11^02 lam7n13 ) ( - ( - RFN1_t_11^0 ) ) ) 0 ) ( = ( + ( * 1 lam7n7 ) ( * Nl8t_1219^01 lam7n12 ) ( * Nl8t_1219^02 lam7n13 ) ( - ( - ( + 0 RFN1_t_1219^0 ) RFN1_t_1219^0 ) ) ) 0 ) ( = ( + ( * ( - 1 ) lam7n2 ) ( * 1 lam7n8 ) ( * Nl8t_1227^01 lam7n12 ) ( * Nl8t_1227^02 lam7n13 ) ( - ( - ( + 0 RFN1_t_1227^0 ) RFN1_t_1227^0 ) ) ) 0 ) ( = ( + ( * 1 lam7n2 ) ( * 1 lam7n9 ) ( * Nl8t_1231^01 lam7n12 ) ( * Nl8t_1231^02 lam7n13 ) ( - ( - ( + 0 RFN1_t_1231^0 ) RFN1_t_1231^0 ) ) ) 0 ) ( = ( * 1 lam7n10 ) 0 ) ( = ( - ( + 0 ( * RFN1_nondet_30^0 1 ) ) ) 0 ) ( = ( + ( * 1 lam7n0 ) ( * 1 lam7n11 ) ( - ( + 0 ( * RFN1_t_11^0 1 ) ) ) ) 0 ) ( = ( * ( - 1 ) lam7n11 ) 0 ) ( = ( + ( * ( - 1 ) lam7n3 ) ( * ( - 1 ) lam7n8 ) ) 0 ) ( = ( + ( * 1 lam7n3 ) ( * ( - 1 ) lam7n9 ) ) 0 ) ( = ( + ( * 1 lam7n1 ) ( * ( - 1 ) lam7n5 ) ) 0 ) ( = ( * ( - 1 ) lam7n6 ) 0 ) ( = ( + ( * ( - 1 ) lam7n4 ) ( * ( - 1 ) lam7n10 ) ) 0 ) ( = ( + ( * 1 lam7n4 ) ( * ( - 1 ) lam7n7 ) ) 0 ) ) ) ) ( and ( >= lam5n0 0 ) ( >= lam5n1 0 ) ( >= lam5n2 0 ) ( >= lam5n3 0 ) ( >= lam5n4 0 ) ( >= lam5n12 0 ) ( >= lam5n13 0 ) ( > ( + ( * 1 lam5n2 ) ( * 1 lam5n3 ) ( * 1 lam5n4 ) ( * Nl8CT1 lam5n12 ) ( * Nl8CT2 lam5n13 ) ( - 1 ) ) 0 ) ( = ( + ( * Nl8nondet_30^01 lam5n12 ) ( * Nl8nondet_30^02 lam5n13 ) ) 0 ) ( = ( + ( * 1 lam5n2 ) ( * 1 lam5n5 ) ( * Nl8t_1193^01 lam5n12 ) ( * Nl8t_1193^02 lam5n13 ) ) 0 ) ( = ( + ( * 1 lam5n6 ) ( * Nl8t_1197^01 lam5n12 ) ( * Nl8t_1197^02 lam5n13 ) ) 0 ) ( = ( + ( * Nl8t_11^01 lam5n12 ) ( * Nl8t_11^02 lam5n13 ) ) 0 ) ( = ( + ( * 1 lam5n7 ) ( * Nl8t_1219^01 lam5n12 ) ( * Nl8t_1219^02 lam5n13 ) ) 0 ) ( = ( + ( * ( - 1 ) lam5n2 ) ( * 1 lam5n8 ) ( * Nl8t_1227^01 lam5n12 ) ( * Nl8t_1227^02 lam5n13 ) ) 0 ) ( = ( + ( * 1 lam5n2 ) ( * 1 lam5n9 ) ( * Nl8t_1231^01 lam5n12 ) ( * Nl8t_1231^02 lam5n13 ) ) 0 ) ( = ( * 1 lam5n10 ) 0 ) ( = ( + ( * 1 lam5n0 ) ( * 1 lam5n11 ) ) 0 ) ( = ( * ( - 1 ) lam5n11 ) 0 ) ( = ( + ( * ( - 1 ) lam5n3 ) ( * ( - 1 ) lam5n8 ) ) 0 ) ( = ( + ( * 1 lam5n3 ) ( * ( - 1 ) lam5n9 ) ) 0 ) ( = ( + ( * 1 lam5n1 ) ( * ( - 1 ) lam5n5 ) ) 0 ) ( = ( * ( - 1 ) lam5n6 ) 0 ) ( = ( + ( * ( - 1 ) lam5n4 ) ( * ( - 1 ) lam5n10 ) ) 0 ) ( = ( + ( * 1 lam5n4 ) ( * ( - 1 ) lam5n7 ) ) 0 ) ) ))
(check-sat)
(exit)
